p cnf 24 59
a 1 4 0
e 2 3 5 6 7 8 9 10 11 12 13 14 15 16 17 18 19 20 21 22 23 24 0
4 -2 0
4 3 0
2 -3 -4 0
-5 1 0
-5 -4 0
-1 4 5 0
2 6 -7 0
-2 -6 -7 0
2 -6 7 0
-2 6 7 0
8 -5 0
8 -7 0
5 7 -8 0
2 -9 -10 0
-2 9 -10 0
2 9 10 0
-2 -9 10 0
12 -1 0
12 11 0
1 -11 -12 0
-12 -9 -13 0
12 9 -13 0
-12 9 13 0
12 -9 13 0
14 10 0
14 -13 0
-10 13 -14 0
-15 -3 0
-15 -6 0
3 6 15 0
17 2 0
17 16 0
-2 -16 -17 0
-19 -17 0
-19 -18 0
17 18 19 0
-20 15 0
-20 19 0
-15 -19 20 0
-21 -1 0
-21 12 0
1 -12 21 0
20 21 -22 0
-20 -21 -22 0
20 -21 22 0
-20 21 22 0
14 -22 -23 0
-14 22 -23 0
14 22 23 0
-14 -22 23 0
24 -8 0
24 -23 0
8 23 -24 0
18 -8 -9 22 10 0
22 2 14 -21 -3 -10 0
-14 21 5 19 -6 7 0
10 -9 -24 16 0
17 15 8 -4 0
24 0
